unsat
(:max-memory         18.43
 :memory             18.33
 :nlsat-arith-var    3
 :nlsat-atoms        12
 :nlsat-bool-var     2
 :nlsat-clauses      8
 :nlsat-conflicts    4
 :nlsat-propagations 12
 :nlsat-stages       4
 :num-allocs         51506
 :rlimit-count       1000
 :time               0.00
 :total-time         0.01)
